c cksystemsgroup.github.io/unicorn
c CNF contains a total of 499 clauses.
c CNF contains a total of 121 variables.
c CNF clauses cover 1 bad states.
c Variable name mapping (17 names):
c   1: input[bit=0]
c   2: input[bit=0]
c   4: input[bit=1]
c   6: input[bit=1]
c   12: input[bit=2]
c   17: input[bit=2]
c   23: input[bit=3]
c   31: input[bit=3]
c   37: input[bit=4]
c   48: input[bit=4]
c   54: input[bit=5]
c   68: input[bit=5]
c   73: input[bit=6]
c   90: input[bit=6]
c   96: input[bit=7]
c   116: input[bit=7]
c   121: ?
p cnf 121 499
-1 -2 3 0
1 -3 0
2 -3 0
-4 -2 5 0
4 -5 0
2 -5 0
-1 -6 7 0
1 -7 0
6 -7 0
-8 0
5 7 8 -9 0
5 7 -8 9 0
5 -7 8 9 0
5 -7 -8 -9 0
-5 7 8 9 0
-5 7 -8 -9 0
-5 -7 8 -9 0
-5 -7 -8 9 0
-9 -10 0
9 10 0
-3 -10 11 0
3 -11 0
10 -11 0
-12 -2 13 0
12 -13 0
2 -13 0
-4 -6 14 0
4 -14 0
6 -14 0
5 7 -15 0
5 8 -15 0
-7 -8 15 0
7 8 -15 0
-5 -8 15 0
-5 -7 15 0
13 14 15 -16 0
13 14 -15 16 0
13 -14 15 16 0
13 -14 -15 -16 0
-13 14 15 16 0
-13 14 -15 -16 0
-13 -14 15 -16 0
-13 -14 -15 16 0
-1 -17 18 0
1 -18 0
17 -18 0
-19 0
16 18 19 -20 0
16 18 -19 20 0
16 -18 19 20 0
16 -18 -19 -20 0
-16 18 19 20 0
-16 18 -19 -20 0
-16 -18 19 -20 0
-16 -18 -19 20 0
-20 -21 0
20 21 0
-11 -21 22 0
11 -22 0
21 -22 0
-23 -2 24 0
23 -24 0
2 -24 0
-12 -6 25 0
12 -25 0
6 -25 0
13 14 -26 0
13 15 -26 0
-14 -15 26 0
14 15 -26 0
-13 -15 26 0
-13 -14 26 0
24 25 26 -27 0
24 25 -26 27 0
24 -25 26 27 0
24 -25 -26 -27 0
-24 25 26 27 0
-24 25 -26 -27 0
-24 -25 26 -27 0
-24 -25 -26 27 0
-4 -17 28 0
4 -28 0
17 -28 0
16 18 -29 0
16 19 -29 0
-18 -19 29 0
18 19 -29 0
-16 -19 29 0
-16 -18 29 0
27 28 29 -30 0
27 28 -29 30 0
27 -28 29 30 0
27 -28 -29 -30 0
-27 28 29 30 0
-27 28 -29 -30 0
-27 -28 29 -30 0
-27 -28 -29 30 0
-1 -31 32 0
1 -32 0
31 -32 0
-33 0
30 32 33 -34 0
30 32 -33 34 0
30 -32 33 34 0
30 -32 -33 -34 0
-30 32 33 34 0
-30 32 -33 -34 0
-30 -32 33 -34 0
-30 -32 -33 34 0
-34 -35 0
34 35 0
-22 -35 36 0
22 -36 0
35 -36 0
-37 -2 38 0
37 -38 0
2 -38 0
-23 -6 39 0
23 -39 0
6 -39 0
24 25 -40 0
24 26 -40 0
-25 -26 40 0
25 26 -40 0
-24 -26 40 0
-24 -25 40 0
38 39 40 -41 0
38 39 -40 41 0
38 -39 40 41 0
38 -39 -40 -41 0
-38 39 40 41 0
-38 39 -40 -41 0
-38 -39 40 -41 0
-38 -39 -40 41 0
-12 -17 42 0
12 -42 0
17 -42 0
27 28 -43 0
27 29 -43 0
-28 -29 43 0
28 29 -43 0
-27 -29 43 0
-27 -28 43 0
41 42 43 -44 0
41 42 -43 44 0
41 -42 43 44 0
41 -42 -43 -44 0
-41 42 43 44 0
-41 42 -43 -44 0
-41 -42 43 -44 0
-41 -42 -43 44 0
-4 -31 45 0
4 -45 0
31 -45 0
30 32 -46 0
30 33 -46 0
-32 -33 46 0
32 33 -46 0
-30 -33 46 0
-30 -32 46 0
44 45 46 -47 0
44 45 -46 47 0
44 -45 46 47 0
44 -45 -46 -47 0
-44 45 46 47 0
-44 45 -46 -47 0
-44 -45 46 -47 0
-44 -45 -46 47 0
-1 -48 49 0
1 -49 0
48 -49 0
-50 0
47 49 50 -51 0
47 49 -50 51 0
47 -49 50 51 0
47 -49 -50 -51 0
-47 49 50 51 0
-47 49 -50 -51 0
-47 -49 50 -51 0
-47 -49 -50 51 0
-51 -52 0
51 52 0
-36 -52 53 0
36 -53 0
52 -53 0
-54 -2 55 0
54 -55 0
2 -55 0
-37 -6 56 0
37 -56 0
6 -56 0
38 39 -57 0
38 40 -57 0
-39 -40 57 0
39 40 -57 0
-38 -40 57 0
-38 -39 57 0
55 56 57 -58 0
55 56 -57 58 0
55 -56 57 58 0
55 -56 -57 -58 0
-55 56 57 58 0
-55 56 -57 -58 0
-55 -56 57 -58 0
-55 -56 -57 58 0
-23 -17 59 0
23 -59 0
17 -59 0
41 42 -60 0
41 43 -60 0
-42 -43 60 0
42 43 -60 0
-41 -43 60 0
-41 -42 60 0
58 59 60 -61 0
58 59 -60 61 0
58 -59 60 61 0
58 -59 -60 -61 0
-58 59 60 61 0
-58 59 -60 -61 0
-58 -59 60 -61 0
-58 -59 -60 61 0
-12 -31 62 0
12 -62 0
31 -62 0
44 45 -63 0
44 46 -63 0
-45 -46 63 0
45 46 -63 0
-44 -46 63 0
-44 -45 63 0
61 62 63 -64 0
61 62 -63 64 0
61 -62 63 64 0
61 -62 -63 -64 0
-61 62 63 64 0
-61 62 -63 -64 0
-61 -62 63 -64 0
-61 -62 -63 64 0
-4 -48 65 0
4 -65 0
48 -65 0
47 49 -66 0
47 50 -66 0
-49 -50 66 0
49 50 -66 0
-47 -50 66 0
-47 -49 66 0
64 65 66 -67 0
64 65 -66 67 0
64 -65 66 67 0
64 -65 -66 -67 0
-64 65 66 67 0
-64 65 -66 -67 0
-64 -65 66 -67 0
-64 -65 -66 67 0
-1 -68 69 0
1 -69 0
68 -69 0
-70 0
67 69 70 -71 0
67 69 -70 71 0
67 -69 70 71 0
67 -69 -70 -71 0
-67 69 70 71 0
-67 69 -70 -71 0
-67 -69 70 -71 0
-67 -69 -70 71 0
-53 -71 72 0
53 -72 0
71 -72 0
-73 -2 74 0
73 -74 0
2 -74 0
-54 -6 75 0
54 -75 0
6 -75 0
55 56 -76 0
55 57 -76 0
-56 -57 76 0
56 57 -76 0
-55 -57 76 0
-55 -56 76 0
74 75 76 -77 0
74 75 -76 77 0
74 -75 76 77 0
74 -75 -76 -77 0
-74 75 76 77 0
-74 75 -76 -77 0
-74 -75 76 -77 0
-74 -75 -76 77 0
-37 -17 78 0
37 -78 0
17 -78 0
58 59 -79 0
58 60 -79 0
-59 -60 79 0
59 60 -79 0
-58 -60 79 0
-58 -59 79 0
77 78 79 -80 0
77 78 -79 80 0
77 -78 79 80 0
77 -78 -79 -80 0
-77 78 79 80 0
-77 78 -79 -80 0
-77 -78 79 -80 0
-77 -78 -79 80 0
-23 -31 81 0
23 -81 0
31 -81 0
61 62 -82 0
61 63 -82 0
-62 -63 82 0
62 63 -82 0
-61 -63 82 0
-61 -62 82 0
80 81 82 -83 0
80 81 -82 83 0
80 -81 82 83 0
80 -81 -82 -83 0
-80 81 82 83 0
-80 81 -82 -83 0
-80 -81 82 -83 0
-80 -81 -82 83 0
-12 -48 84 0
12 -84 0
48 -84 0
64 65 -85 0
64 66 -85 0
-65 -66 85 0
65 66 -85 0
-64 -66 85 0
-64 -65 85 0
83 84 85 -86 0
83 84 -85 86 0
83 -84 85 86 0
83 -84 -85 -86 0
-83 84 85 86 0
-83 84 -85 -86 0
-83 -84 85 -86 0
-83 -84 -85 86 0
-4 -68 87 0
4 -87 0
68 -87 0
67 69 -88 0
67 70 -88 0
-69 -70 88 0
69 70 -88 0
-67 -70 88 0
-67 -69 88 0
86 87 88 -89 0
86 87 -88 89 0
86 -87 88 89 0
86 -87 -88 -89 0
-86 87 88 89 0
-86 87 -88 -89 0
-86 -87 88 -89 0
-86 -87 -88 89 0
-1 -90 91 0
1 -91 0
90 -91 0
-92 0
89 91 92 -93 0
89 91 -92 93 0
89 -91 92 93 0
89 -91 -92 -93 0
-89 91 92 93 0
-89 91 -92 -93 0
-89 -91 92 -93 0
-89 -91 -92 93 0
-93 -94 0
93 94 0
-72 -94 95 0
72 -95 0
94 -95 0
-96 -2 97 0
96 -97 0
2 -97 0
-73 -6 98 0
73 -98 0
6 -98 0
74 75 -99 0
74 76 -99 0
-75 -76 99 0
75 76 -99 0
-74 -76 99 0
-74 -75 99 0
97 98 99 -100 0
97 98 -99 100 0
97 -98 99 100 0
97 -98 -99 -100 0
-97 98 99 100 0
-97 98 -99 -100 0
-97 -98 99 -100 0
-97 -98 -99 100 0
-54 -17 101 0
54 -101 0
17 -101 0
77 78 -102 0
77 79 -102 0
-78 -79 102 0
78 79 -102 0
-77 -79 102 0
-77 -78 102 0
100 101 102 -103 0
100 101 -102 103 0
100 -101 102 103 0
100 -101 -102 -103 0
-100 101 102 103 0
-100 101 -102 -103 0
-100 -101 102 -103 0
-100 -101 -102 103 0
-37 -31 104 0
37 -104 0
31 -104 0
80 81 -105 0
80 82 -105 0
-81 -82 105 0
81 82 -105 0
-80 -82 105 0
-80 -81 105 0
103 104 105 -106 0
103 104 -105 106 0
103 -104 105 106 0
103 -104 -105 -106 0
-103 104 105 106 0
-103 104 -105 -106 0
-103 -104 105 -106 0
-103 -104 -105 106 0
-23 -48 107 0
23 -107 0
48 -107 0
83 84 -108 0
83 85 -108 0
-84 -85 108 0
84 85 -108 0
-83 -85 108 0
-83 -84 108 0
106 107 108 -109 0
106 107 -108 109 0
106 -107 108 109 0
106 -107 -108 -109 0
-106 107 108 109 0
-106 107 -108 -109 0
-106 -107 108 -109 0
-106 -107 -108 109 0
-12 -68 110 0
12 -110 0
68 -110 0
86 87 -111 0
86 88 -111 0
-87 -88 111 0
87 88 -111 0
-86 -88 111 0
-86 -87 111 0
109 110 111 -112 0
109 110 -111 112 0
109 -110 111 112 0
109 -110 -111 -112 0
-109 110 111 112 0
-109 110 -111 -112 0
-109 -110 111 -112 0
-109 -110 -111 112 0
-4 -90 113 0
4 -113 0
90 -113 0
89 91 -114 0
89 92 -114 0
-91 -92 114 0
91 92 -114 0
-89 -92 114 0
-89 -91 114 0
112 113 114 -115 0
112 113 -114 115 0
112 -113 114 115 0
112 -113 -114 -115 0
-112 113 114 115 0
-112 113 -114 -115 0
-112 -113 114 -115 0
-112 -113 -114 115 0
-1 -116 117 0
1 -117 0
116 -117 0
-118 0
115 117 118 -119 0
115 117 -118 119 0
115 -117 118 119 0
115 -117 -118 -119 0
-115 117 118 119 0
-115 117 -118 -119 0
-115 -117 118 -119 0
-115 -117 -118 119 0
-119 -120 0
119 120 0
-95 -120 121 0
95 -121 0
120 -121 0
121 0
